c Reduced graph for mulsol.i.3_7 generated by Cyril Grelier
p edge 110 2268
e 1 2
e 1 19
e 1 20
e 1 21
e 1 22
e 1 23
e 1 24
e 1 25
e 1 26
e 1 27
e 1 28
e 1 29
e 1 30
e 1 31
e 1 32
e 1 33
e 1 34
e 1 35
e 1 36
e 1 37
e 1 38
e 1 39
e 1 40
e 1 41
e 1 42
e 1 43
e 1 44
e 1 45
e 1 46
e 1 47
e 1 48
e 1 49
e 1 50
e 1 51
e 1 52
e 1 53
e 1 54
e 1 55
e 1 56
e 1 57
e 1 58
e 1 59
e 1 60
e 1 61
e 1 62
e 1 63
e 1 64
e 1 65
e 1 66
e 1 67
e 1 68
e 1 69
e 1 70
e 1 71
e 1 72
e 1 73
e 1 74
e 1 75
e 1 76
e 1 77
e 1 78
e 1 79
e 1 80
e 1 81
e 1 82
e 1 83
e 1 84
e 1 85
e 1 86
e 1 87
e 1 88
e 1 89
e 1 90
e 1 91
e 1 92
e 1 93
e 1 94
e 1 95
e 1 96
e 1 97
e 1 98
e 1 99
e 1 100
e 1 101
e 1 102
e 1 103
e 1 104
e 1 105
e 1 106
e 1 107
e 1 108
e 1 109
e 1 110
e 2 19
e 2 20
e 2 21
e 2 22
e 2 23
e 2 24
e 2 25
e 2 26
e 2 27
e 2 28
e 2 29
e 2 30
e 2 31
e 2 32
e 2 33
e 2 34
e 2 35
e 2 36
e 2 37
e 2 38
e 2 39
e 2 40
e 2 41
e 2 42
e 2 43
e 2 44
e 2 45
e 2 46
e 2 47
e 2 48
e 2 49
e 2 50
e 2 51
e 2 52
e 2 53
e 2 54
e 2 55
e 2 56
e 2 57
e 2 58
e 2 59
e 2 60
e 2 61
e 2 62
e 2 63
e 2 64
e 2 65
e 2 66
e 2 67
e 2 68
e 2 69
e 2 70
e 2 71
e 2 72
e 2 73
e 2 74
e 2 75
e 2 76
e 2 77
e 2 78
e 2 79
e 2 80
e 2 81
e 2 82
e 2 83
e 2 84
e 2 85
e 2 86
e 2 87
e 2 88
e 2 89
e 2 90
e 2 91
e 2 92
e 2 93
e 2 94
e 2 95
e 2 96
e 2 97
e 2 98
e 2 99
e 2 100
e 2 101
e 2 102
e 2 103
e 2 104
e 2 105
e 2 106
e 2 107
e 2 108
e 2 109
e 2 110
e 3 4
e 3 5
e 3 6
e 3 7
e 3 8
e 3 9
e 3 10
e 3 11
e 3 12
e 3 13
e 3 14
e 3 15
e 3 16
e 3 17
e 3 18
e 3 21
e 3 23
e 3 24
e 3 26
e 3 28
e 3 30
e 3 31
e 3 32
e 3 33
e 3 34
e 3 35
e 3 36
e 3 39
e 3 40
e 3 41
e 3 46
e 3 47
e 3 50
e 3 51
e 3 52
e 3 53
e 3 54
e 3 55
e 3 56
e 3 57
e 3 58
e 3 59
e 3 60
e 3 61
e 3 62
e 3 63
e 3 64
e 3 65
e 3 66
e 3 67
e 3 68
e 3 69
e 3 70
e 3 71
e 3 72
e 3 73
e 3 74
e 3 75
e 3 76
e 3 77
e 3 78
e 3 79
e 3 80
e 3 81
e 3 82
e 3 83
e 3 84
e 3 85
e 3 86
e 3 87
e 3 88
e 3 89
e 3 90
e 3 91
e 3 92
e 3 93
e 3 94
e 3 95
e 3 96
e 3 97
e 3 98
e 3 99
e 3 100
e 3 101
e 3 102
e 3 103
e 3 104
e 3 105
e 3 106
e 3 107
e 3 108
e 3 109
e 3 110
e 4 5
e 4 6
e 4 7
e 4 8
e 4 9
e 4 10
e 4 11
e 4 12
e 4 13
e 4 14
e 4 15
e 4 16
e 4 17
e 4 18
e 4 21
e 4 23
e 4 24
e 4 26
e 4 28
e 4 30
e 4 31
e 4 32
e 4 33
e 4 34
e 4 35
e 4 36
e 4 39
e 4 40
e 4 41
e 4 47
e 4 56
e 4 57
e 4 58
e 4 59
e 4 60
e 4 61
e 4 62
e 4 63
e 4 64
e 4 67
e 4 72
e 4 73
e 4 76
e 4 77
e 4 78
e 4 79
e 4 80
e 4 81
e 4 82
e 4 85
e 4 86
e 4 91
e 4 92
e 4 93
e 4 94
e 4 95
e 4 96
e 4 97
e 4 98
e 4 99
e 4 100
e 4 101
e 4 102
e 4 103
e 4 104
e 4 105
e 4 106
e 4 107
e 4 108
e 4 109
e 4 110
e 5 6
e 5 7
e 5 8
e 5 9
e 5 10
e 5 11
e 5 12
e 5 13
e 5 14
e 5 15
e 5 16
e 5 17
e 5 18
e 5 21
e 5 23
e 5 24
e 5 26
e 5 28
e 5 30
e 5 31
e 5 32
e 5 33
e 5 34
e 5 35
e 5 36
e 5 40
e 5 41
e 5 47
e 5 56
e 5 57
e 5 58
e 5 59
e 5 60
e 5 61
e 5 62
e 5 63
e 5 64
e 5 67
e 5 72
e 5 73
e 5 76
e 5 77
e 5 78
e 5 79
e 5 80
e 5 81
e 5 82
e 5 85
e 5 86
e 5 91
e 5 92
e 5 93
e 5 94
e 5 95
e 5 96
e 5 97
e 5 98
e 5 99
e 5 100
e 5 101
e 5 102
e 5 103
e 5 104
e 5 105
e 5 106
e 5 107
e 5 108
e 5 109
e 5 110
e 6 7
e 6 8
e 6 9
e 6 10
e 6 11
e 6 12
e 6 13
e 6 14
e 6 15
e 6 16
e 6 17
e 6 18
e 6 21
e 6 23
e 6 24
e 6 26
e 6 28
e 6 31
e 6 32
e 6 33
e 6 34
e 6 35
e 6 36
e 6 40
e 6 41
e 6 47
e 6 56
e 6 57
e 6 58
e 6 59
e 6 60
e 6 61
e 6 62
e 6 63
e 6 64
e 6 67
e 6 72
e 6 73
e 6 76
e 6 77
e 6 78
e 6 79
e 6 80
e 6 81
e 6 82
e 6 85
e 6 86
e 6 91
e 6 92
e 6 93
e 6 94
e 6 95
e 6 96
e 6 97
e 6 98
e 6 99
e 6 100
e 6 101
e 6 102
e 6 103
e 6 104
e 6 105
e 6 106
e 6 107
e 6 108
e 6 109
e 6 110
e 7 8
e 7 9
e 7 10
e 7 11
e 7 12
e 7 13
e 7 14
e 7 15
e 7 16
e 7 17
e 7 18
e 7 21
e 7 23
e 7 24
e 7 26
e 7 31
e 7 32
e 7 33
e 7 34
e 7 35
e 7 36
e 7 40
e 7 41
e 7 47
e 7 56
e 7 57
e 7 58
e 7 59
e 7 60
e 7 61
e 7 62
e 7 63
e 7 64
e 7 67
e 7 72
e 7 73
e 7 76
e 7 77
e 7 78
e 7 79
e 7 80
e 7 81
e 7 82
e 7 85
e 7 86
e 7 91
e 7 92
e 7 93
e 7 94
e 7 95
e 7 96
e 7 97
e 7 98
e 7 99
e 7 100
e 7 101
e 7 102
e 7 103
e 7 104
e 7 105
e 7 106
e 7 107
e 7 108
e 7 109
e 7 110
e 8 9
e 8 10
e 8 11
e 8 12
e 8 13
e 8 14
e 8 15
e 8 16
e 8 17
e 8 18
e 8 21
e 8 23
e 8 24
e 8 31
e 8 32
e 8 33
e 8 34
e 8 35
e 8 36
e 8 40
e 8 41
e 8 47
e 8 56
e 8 57
e 8 58
e 8 59
e 8 60
e 8 61
e 8 62
e 8 63
e 8 64
e 8 67
e 8 72
e 8 73
e 8 76
e 8 77
e 8 78
e 8 79
e 8 80
e 8 81
e 8 82
e 8 85
e 8 86
e 8 91
e 8 92
e 8 93
e 8 94
e 8 95
e 8 96
e 8 97
e 8 98
e 8 99
e 8 100
e 8 101
e 8 102
e 8 103
e 8 104
e 8 105
e 8 106
e 8 107
e 8 108
e 8 109
e 8 110
e 9 10
e 9 11
e 9 12
e 9 13
e 9 14
e 9 15
e 9 16
e 9 17
e 9 18
e 9 21
e 9 24
e 9 31
e 9 32
e 9 33
e 9 34
e 9 35
e 9 36
e 9 40
e 9 41
e 9 47
e 9 56
e 9 57
e 9 58
e 9 59
e 9 60
e 9 61
e 9 62
e 9 63
e 9 64
e 9 67
e 9 72
e 9 73
e 9 76
e 9 77
e 9 78
e 9 79
e 9 80
e 9 81
e 9 82
e 9 85
e 9 86
e 9 91
e 9 92
e 9 93
e 9 94
e 9 95
e 9 96
e 9 97
e 9 98
e 9 99
e 9 100
e 9 101
e 9 102
e 9 103
e 9 104
e 9 105
e 9 106
e 9 107
e 9 108
e 9 109
e 9 110
e 10 11
e 10 12
e 10 13
e 10 14
e 10 15
e 10 16
e 10 17
e 10 18
e 10 21
e 10 24
e 10 31
e 10 32
e 10 33
e 10 34
e 10 35
e 10 36
e 10 40
e 10 41
e 10 47
e 10 56
e 10 57
e 10 58
e 10 59
e 10 60
e 10 61
e 10 62
e 10 63
e 10 64
e 10 67
e 10 73
e 10 76
e 10 77
e 10 78
e 10 79
e 10 80
e 10 81
e 10 82
e 10 85
e 10 86
e 10 91
e 10 92
e 10 93
e 10 94
e 10 95
e 10 96
e 10 97
e 10 98
e 10 99
e 10 100
e 10 101
e 10 102
e 10 103
e 10 104
e 10 105
e 10 106
e 10 107
e 10 108
e 10 109
e 10 110
e 11 12
e 11 13
e 11 14
e 11 15
e 11 16
e 11 17
e 11 18
e 11 21
e 11 24
e 11 31
e 11 32
e 11 33
e 11 34
e 11 35
e 11 36
e 11 40
e 11 41
e 11 47
e 11 56
e 11 57
e 11 58
e 11 59
e 11 60
e 11 62
e 11 63
e 11 64
e 11 67
e 11 73
e 11 76
e 11 77
e 11 78
e 11 79
e 11 80
e 11 81
e 11 82
e 11 85
e 11 86
e 11 91
e 11 92
e 11 93
e 11 94
e 11 95
e 11 96
e 11 97
e 11 98
e 11 99
e 11 100
e 11 101
e 11 102
e 11 103
e 11 104
e 11 105
e 11 106
e 11 107
e 11 108
e 11 109
e 11 110
e 12 13
e 12 14
e 12 15
e 12 16
e 12 17
e 12 18
e 12 21
e 12 24
e 12 31
e 12 32
e 12 33
e 12 34
e 12 35
e 12 36
e 12 40
e 12 41
e 12 47
e 12 57
e 12 58
e 12 59
e 12 60
e 12 62
e 12 63
e 12 64
e 12 67
e 12 73
e 12 76
e 12 77
e 12 78
e 12 79
e 12 80
e 12 81
e 12 82
e 12 85
e 12 86
e 12 91
e 12 92
e 12 93
e 12 94
e 12 95
e 12 96
e 12 97
e 12 98
e 12 99
e 12 100
e 12 101
e 12 102
e 12 103
e 12 104
e 12 105
e 12 106
e 12 107
e 12 108
e 12 109
e 12 110
e 13 14
e 13 15
e 13 16
e 13 17
e 13 18
e 13 21
e 13 24
e 13 31
e 13 32
e 13 33
e 13 34
e 13 35
e 13 36
e 13 40
e 13 41
e 13 47
e 13 57
e 13 58
e 13 59
e 13 60
e 13 62
e 13 63
e 13 64
e 13 67
e 13 73
e 13 76
e 13 77
e 13 78
e 13 79
e 13 80
e 13 81
e 13 82
e 13 85
e 13 86
e 13 91
e 13 92
e 13 93
e 13 94
e 13 95
e 13 96
e 13 97
e 13 98
e 13 99
e 13 100
e 13 101
e 13 102
e 13 103
e 13 104
e 13 105
e 13 106
e 13 107
e 13 108
e 13 109
e 13 110
e 14 15
e 14 16
e 14 17
e 14 18
e 14 21
e 14 24
e 14 31
e 14 32
e 14 33
e 14 34
e 14 35
e 14 36
e 14 40
e 14 41
e 14 47
e 14 57
e 14 58
e 14 59
e 14 60
e 14 62
e 14 63
e 14 64
e 14 67
e 14 73
e 14 76
e 14 77
e 14 78
e 14 79
e 14 80
e 14 81
e 14 82
e 14 85
e 14 86
e 14 91
e 14 92
e 14 93
e 14 94
e 14 95
e 14 96
e 14 97
e 14 98
e 14 99
e 14 100
e 14 101
e 14 102
e 14 103
e 14 104
e 14 105
e 14 106
e 14 107
e 14 108
e 14 109
e 14 110
e 15 16
e 15 17
e 15 18
e 15 21
e 15 24
e 15 31
e 15 32
e 15 33
e 15 34
e 15 35
e 15 36
e 15 40
e 15 41
e 15 47
e 15 57
e 15 58
e 15 59
e 15 60
e 15 62
e 15 63
e 15 64
e 15 67
e 15 73
e 15 76
e 15 77
e 15 78
e 15 79
e 15 80
e 15 81
e 15 82
e 15 85
e 15 86
e 15 91
e 15 92
e 15 93
e 15 94
e 15 95
e 15 96
e 15 97
e 15 98
e 15 99
e 15 100
e 15 101
e 15 102
e 15 103
e 15 104
e 15 105
e 15 106
e 15 107
e 15 108
e 15 109
e 15 110
e 16 17
e 16 18
e 16 21
e 16 24
e 16 31
e 16 32
e 16 33
e 16 34
e 16 35
e 16 36
e 16 40
e 16 41
e 16 47
e 16 57
e 16 58
e 16 59
e 16 60
e 16 62
e 16 63
e 16 64
e 16 67
e 16 73
e 16 76
e 16 77
e 16 78
e 16 79
e 16 80
e 16 81
e 16 82
e 16 85
e 16 86
e 16 91
e 16 92
e 16 93
e 16 94
e 16 95
e 16 96
e 16 97
e 16 98
e 16 99
e 16 100
e 16 101
e 16 102
e 16 103
e 16 104
e 16 105
e 16 106
e 16 107
e 16 108
e 16 109
e 16 110
e 17 18
e 17 21
e 17 24
e 17 31
e 17 32
e 17 33
e 17 34
e 17 35
e 17 36
e 17 40
e 17 41
e 17 47
e 17 57
e 17 58
e 17 59
e 17 60
e 17 62
e 17 63
e 17 64
e 17 67
e 17 73
e 17 76
e 17 77
e 17 78
e 17 79
e 17 80
e 17 81
e 17 82
e 17 85
e 17 86
e 17 91
e 17 92
e 17 93
e 17 94
e 17 95
e 17 96
e 17 97
e 17 98
e 17 99
e 17 100
e 17 101
e 17 102
e 17 103
e 17 104
e 17 105
e 17 106
e 17 107
e 17 108
e 17 109
e 17 110
e 18 21
e 18 24
e 18 31
e 18 32
e 18 33
e 18 34
e 18 35
e 18 36
e 18 40
e 18 41
e 18 47
e 18 57
e 18 58
e 18 59
e 18 60
e 18 62
e 18 63
e 18 64
e 18 67
e 18 73
e 18 76
e 18 77
e 18 78
e 18 79
e 18 80
e 18 81
e 18 82
e 18 85
e 18 86
e 18 91
e 18 92
e 18 93
e 18 94
e 18 95
e 18 96
e 18 97
e 18 98
e 18 99
e 18 100
e 18 101
e 18 102
e 18 103
e 18 104
e 18 105
e 18 106
e 18 107
e 18 108
e 18 109
e 18 110
e 19 20
e 19 22
e 19 23
e 19 25
e 19 26
e 19 27
e 19 28
e 19 29
e 19 30
e 19 37
e 19 38
e 19 39
e 19 42
e 19 43
e 19 44
e 19 45
e 19 46
e 19 48
e 19 49
e 19 50
e 19 51
e 19 52
e 19 53
e 19 54
e 19 55
e 19 56
e 19 61
e 19 62
e 19 65
e 19 66
e 19 68
e 19 69
e 19 70
e 19 71
e 19 72
e 19 73
e 19 74
e 19 75
e 19 78
e 19 83
e 19 84
e 19 87
e 19 88
e 19 89
e 19 90
e 19 93
e 19 94
e 19 96
e 19 97
e 19 98
e 20 22
e 20 23
e 20 25
e 20 26
e 20 27
e 20 28
e 20 29
e 20 30
e 20 37
e 20 38
e 20 39
e 20 42
e 20 43
e 20 44
e 20 45
e 20 46
e 20 48
e 20 49
e 20 50
e 20 51
e 20 52
e 20 53
e 20 54
e 20 55
e 20 56
e 20 61
e 20 62
e 20 65
e 20 66
e 20 68
e 20 69
e 20 70
e 20 71
e 20 72
e 20 73
e 20 74
e 20 75
e 20 78
e 20 83
e 20 84
e 20 87
e 20 88
e 20 89
e 20 90
e 20 93
e 20 94
e 20 96
e 20 97
e 21 24
e 21 31
e 21 32
e 21 33
e 21 34
e 21 35
e 21 36
e 21 37
e 21 40
e 21 41
e 21 47
e 21 57
e 21 58
e 21 59
e 21 60
e 21 63
e 21 64
e 21 67
e 21 76
e 21 77
e 21 79
e 21 80
e 21 81
e 21 82
e 21 85
e 21 86
e 21 91
e 21 92
e 21 95
e 21 100
e 21 101
e 21 102
e 22 23
e 22 25
e 22 26
e 22 27
e 22 28
e 22 29
e 22 30
e 22 37
e 22 38
e 22 39
e 22 42
e 22 43
e 22 44
e 22 45
e 22 46
e 22 48
e 22 49
e 22 50
e 22 51
e 22 52
e 22 53
e 22 54
e 22 55
e 22 56
e 22 61
e 22 62
e 22 65
e 22 66
e 22 68
e 22 69
e 22 70
e 22 71
e 22 72
e 22 73
e 22 74
e 22 75
e 22 78
e 22 83
e 22 84
e 22 87
e 22 88
e 22 89
e 22 90
e 22 93
e 22 94
e 22 96
e 23 25
e 23 26
e 23 27
e 23 28
e 23 29
e 23 30
e 23 37
e 23 38
e 23 39
e 23 42
e 23 43
e 23 44
e 23 45
e 23 46
e 23 48
e 23 49
e 23 50
e 23 51
e 23 52
e 23 53
e 23 54
e 23 55
e 23 56
e 23 61
e 23 65
e 23 66
e 23 68
e 23 69
e 23 70
e 23 71
e 23 72
e 23 74
e 23 75
e 23 83
e 23 84
e 23 87
e 23 88
e 23 89
e 23 90
e 24 31
e 24 32
e 24 33
e 24 34
e 24 35
e 24 36
e 24 40
e 24 41
e 24 47
e 24 57
e 24 58
e 24 59
e 24 60
e 24 63
e 24 64
e 24 67
e 24 76
e 24 77
e 24 79
e 24 80
e 24 81
e 24 82
e 24 85
e 24 86
e 24 91
e 24 92
e 24 95
e 24 100
e 24 101
e 24 102
e 25 26
e 25 27
e 25 28
e 25 29
e 25 30
e 25 37
e 25 38
e 25 39
e 25 42
e 25 43
e 25 44
e 25 45
e 25 46
e 25 48
e 25 49
e 25 50
e 25 51
e 25 52
e 25 53
e 25 54
e 25 55
e 25 56
e 25 61
e 25 62
e 25 65
e 25 66
e 25 68
e 25 69
e 25 70
e 25 71
e 25 72
e 25 73
e 25 74
e 25 75
e 25 78
e 25 83
e 25 84
e 25 87
e 25 88
e 25 89
e 25 90
e 25 93
e 25 94
e 26 27
e 26 28
e 26 29
e 26 30
e 26 37
e 26 38
e 26 39
e 26 42
e 26 43
e 26 44
e 26 45
e 26 46
e 26 48
e 26 49
e 26 50
e 26 51
e 26 52
e 26 53
e 26 54
e 26 55
e 26 56
e 26 61
e 26 65
e 26 66
e 26 68
e 26 69
e 26 70
e 26 71
e 26 72
e 26 74
e 26 75
e 26 83
e 26 84
e 26 87
e 26 88
e 26 89
e 26 90
e 27 28
e 27 29
e 27 30
e 27 37
e 27 38
e 27 39
e 27 42
e 27 43
e 27 44
e 27 45
e 27 46
e 27 48
e 27 49
e 27 50
e 27 51
e 27 52
e 27 53
e 27 54
e 27 55
e 27 56
e 27 61
e 27 62
e 27 65
e 27 66
e 27 68
e 27 69
e 27 70
e 27 71
e 27 72
e 27 73
e 27 74
e 27 75
e 27 78
e 27 83
e 27 84
e 27 87
e 27 88
e 27 89
e 27 90
e 27 93
e 28 29
e 28 30
e 28 37
e 28 38
e 28 39
e 28 42
e 28 43
e 28 44
e 28 45
e 28 46
e 28 48
e 28 49
e 28 50
e 28 51
e 28 52
e 28 53
e 28 54
e 28 55
e 28 56
e 28 61
e 28 65
e 28 66
e 28 68
e 28 69
e 28 70
e 28 71
e 28 72
e 28 74
e 28 75
e 28 83
e 28 84
e 28 87
e 28 88
e 28 89
e 28 90
e 29 30
e 29 37
e 29 38
e 29 39
e 29 42
e 29 43
e 29 44
e 29 45
e 29 46
e 29 48
e 29 49
e 29 50
e 29 51
e 29 52
e 29 53
e 29 54
e 29 55
e 29 56
e 29 61
e 29 62
e 29 65
e 29 66
e 29 68
e 29 69
e 29 70
e 29 71
e 29 72
e 29 73
e 29 74
e 29 75
e 29 78
e 29 83
e 29 84
e 29 87
e 29 88
e 29 89
e 29 90
e 30 37
e 30 38
e 30 39
e 30 42
e 30 43
e 30 44
e 30 45
e 30 46
e 30 48
e 30 49
e 30 50
e 30 51
e 30 52
e 30 53
e 30 54
e 30 55
e 30 56
e 30 61
e 30 65
e 30 66
e 30 68
e 30 69
e 30 70
e 30 71
e 30 72
e 30 74
e 30 75
e 30 83
e 30 84
e 30 87
e 30 88
e 30 89
e 30 90
e 31 32
e 31 33
e 31 34
e 31 35
e 31 36
e 31 40
e 31 41
e 31 47
e 31 57
e 31 58
e 31 59
e 31 60
e 31 63
e 31 64
e 31 67
e 31 76
e 31 77
e 31 79
e 31 80
e 31 81
e 31 82
e 31 85
e 31 86
e 31 91
e 31 92
e 31 95
e 32 33
e 32 34
e 32 35
e 32 36
e 32 40
e 32 41
e 32 47
e 32 57
e 32 58
e 32 59
e 32 60
e 32 63
e 32 64
e 32 67
e 32 76
e 32 77
e 32 79
e 32 80
e 32 81
e 32 82
e 32 85
e 32 86
e 32 91
e 32 92
e 32 95
e 33 34
e 33 35
e 33 36
e 33 40
e 33 41
e 33 47
e 33 57
e 33 58
e 33 59
e 33 60
e 33 63
e 33 64
e 33 67
e 33 76
e 33 77
e 33 79
e 33 80
e 33 81
e 33 82
e 33 85
e 33 86
e 33 91
e 33 92
e 33 95
e 34 35
e 34 36
e 34 40
e 34 41
e 34 47
e 34 57
e 34 58
e 34 59
e 34 60
e 34 63
e 34 64
e 34 67
e 34 76
e 34 77
e 34 79
e 34 80
e 34 81
e 34 82
e 34 85
e 34 86
e 34 91
e 34 92
e 34 95
e 35 36
e 35 40
e 35 41
e 35 47
e 35 57
e 35 58
e 35 59
e 35 60
e 35 63
e 35 64
e 35 67
e 35 76
e 35 77
e 35 79
e 35 80
e 35 81
e 35 82
e 35 85
e 35 86
e 35 91
e 35 92
e 35 95
e 36 40
e 36 41
e 36 47
e 36 57
e 36 58
e 36 59
e 36 60
e 36 63
e 36 64
e 36 67
e 36 76
e 36 77
e 36 79
e 36 80
e 36 81
e 36 82
e 36 85
e 36 86
e 36 91
e 36 92
e 36 95
e 37 38
e 37 39
e 37 42
e 37 43
e 37 44
e 37 45
e 37 46
e 37 48
e 37 49
e 37 50
e 37 51
e 37 52
e 37 53
e 37 54
e 37 55
e 37 56
e 37 61
e 37 65
e 37 66
e 37 68
e 37 69
e 37 70
e 37 71
e 37 72
e 37 74
e 37 75
e 37 78
e 37 83
e 37 84
e 37 87
e 37 88
e 37 89
e 37 90
e 38 39
e 38 42
e 38 43
e 38 44
e 38 45
e 38 46
e 38 48
e 38 49
e 38 50
e 38 51
e 38 52
e 38 53
e 38 54
e 38 55
e 38 56
e 38 61
e 38 62
e 38 65
e 38 66
e 38 68
e 38 69
e 38 70
e 38 71
e 38 72
e 38 74
e 38 75
e 38 78
e 38 83
e 38 84
e 38 87
e 38 88
e 38 89
e 38 90
e 39 42
e 39 43
e 39 44
e 39 45
e 39 46
e 39 48
e 39 49
e 39 50
e 39 51
e 39 52
e 39 53
e 39 54
e 39 55
e 39 56
e 39 61
e 39 65
e 39 66
e 39 68
e 39 69
e 39 70
e 39 71
e 39 72
e 39 74
e 39 75
e 39 83
e 39 84
e 39 87
e 39 88
e 39 89
e 39 90
e 40 41
e 40 47
e 40 57
e 40 58
e 40 59
e 40 60
e 40 63
e 40 64
e 40 67
e 40 76
e 40 77
e 40 79
e 40 80
e 40 81
e 40 82
e 40 85
e 40 86
e 40 91
e 40 92
e 40 95
e 41 47
e 41 57
e 41 58
e 41 59
e 41 60
e 41 63
e 41 64
e 41 67
e 41 76
e 41 77
e 41 79
e 41 80
e 41 81
e 41 82
e 41 85
e 41 86
e 41 91
e 41 92
e 41 95
e 42 43
e 42 44
e 42 45
e 42 46
e 42 48
e 42 49
e 42 50
e 42 51
e 42 52
e 42 53
e 42 54
e 42 55
e 42 56
e 42 61
e 42 65
e 42 66
e 42 68
e 42 69
e 42 70
e 42 71
e 42 72
e 42 74
e 42 75
e 42 78
e 42 83
e 42 84
e 42 87
e 42 88
e 42 89
e 42 90
e 43 44
e 43 45
e 43 46
e 43 48
e 43 49
e 43 50
e 43 51
e 43 52
e 43 53
e 43 54
e 43 55
e 43 56
e 43 61
e 43 65
e 43 66
e 43 68
e 43 69
e 43 70
e 43 71
e 43 72
e 43 74
e 43 75
e 43 78
e 43 83
e 43 84
e 43 87
e 43 88
e 43 89
e 43 90
e 44 45
e 44 46
e 44 48
e 44 49
e 44 50
e 44 51
e 44 52
e 44 53
e 44 54
e 44 55
e 44 56
e 44 61
e 44 65
e 44 66
e 44 68
e 44 69
e 44 70
e 44 71
e 44 72
e 44 74
e 44 75
e 44 78
e 44 83
e 44 84
e 44 87
e 44 88
e 44 89
e 44 90
e 45 46
e 45 48
e 45 49
e 45 50
e 45 51
e 45 52
e 45 53
e 45 54
e 45 55
e 45 56
e 45 61
e 45 65
e 45 66
e 45 68
e 45 69
e 45 70
e 45 71
e 45 72
e 45 74
e 45 75
e 45 78
e 45 83
e 45 84
e 45 87
e 45 88
e 45 89
e 45 90
e 46 48
e 46 49
e 46 50
e 46 51
e 46 52
e 46 53
e 46 54
e 46 55
e 46 56
e 46 61
e 46 65
e 46 66
e 46 68
e 46 69
e 46 70
e 46 71
e 46 72
e 46 74
e 46 75
e 46 83
e 46 84
e 46 87
e 46 88
e 46 89
e 46 90
e 47 57
e 47 58
e 47 59
e 47 60
e 47 63
e 47 64
e 47 67
e 47 76
e 47 77
e 47 79
e 47 80
e 47 81
e 47 82
e 47 85
e 47 86
e 47 91
e 47 92
e 48 49
e 48 50
e 48 51
e 48 52
e 48 53
e 48 54
e 48 55
e 48 56
e 48 61
e 48 65
e 48 66
e 48 68
e 48 69
e 48 70
e 48 71
e 48 72
e 48 74
e 48 75
e 48 83
e 48 84
e 48 87
e 48 88
e 48 89
e 48 90
e 49 50
e 49 51
e 49 52
e 49 53
e 49 54
e 49 55
e 49 56
e 49 61
e 49 65
e 49 66
e 49 68
e 49 69
e 49 70
e 49 71
e 49 72
e 49 74
e 49 75
e 49 83
e 49 84
e 49 87
e 49 88
e 49 89
e 49 90
e 50 51
e 50 52
e 50 53
e 50 54
e 50 55
e 50 65
e 50 66
e 50 68
e 50 69
e 50 70
e 50 71
e 50 74
e 50 75
e 50 83
e 50 84
e 50 87
e 50 88
e 50 89
e 50 90
e 51 52
e 51 53
e 51 54
e 51 55
e 51 65
e 51 66
e 51 68
e 51 69
e 51 70
e 51 71
e 51 74
e 51 75
e 51 83
e 51 84
e 51 87
e 51 88
e 51 89
e 51 90
e 52 53
e 52 54
e 52 55
e 52 65
e 52 66
e 52 68
e 52 69
e 52 70
e 52 71
e 52 74
e 52 75
e 52 83
e 52 84
e 52 87
e 52 88
e 52 89
e 52 90
e 53 54
e 53 55
e 53 65
e 53 66
e 53 68
e 53 69
e 53 70
e 53 71
e 53 74
e 53 75
e 53 83
e 53 84
e 53 87
e 53 88
e 53 89
e 53 90
e 54 55
e 54 65
e 54 66
e 54 68
e 54 69
e 54 70
e 54 71
e 54 74
e 54 75
e 54 83
e 54 84
e 54 87
e 54 88
e 54 89
e 54 90
e 55 65
e 55 66
e 55 68
e 55 69
e 55 70
e 55 71
e 55 74
e 55 75
e 55 83
e 55 84
e 55 87
e 55 88
e 55 89
e 55 90
e 56 61
e 56 72
e 57 58
e 57 59
e 57 60
e 58 59
e 58 60
e 59 60
e 61 72
e 62 73
e 62 93
e 62 94
e 62 96
e 62 97
e 62 98
e 62 99
e 63 64
e 63 67
e 64 67
e 65 68
e 65 69
e 66 70
e 66 71
e 68 69
e 70 71
e 73 93
e 73 94
e 73 96
e 73 97
e 73 98
e 73 99
e 74 75
e 76 92
e 77 91
e 79 80
e 81 82
e 83 84
e 85 86
e 87 88
e 89 90
e 93 94
e 93 96
e 93 97
e 93 98
e 93 99
e 94 96
e 94 97
e 94 98
e 94 99
e 96 97
e 96 98
e 96 99
e 97 98
e 97 99
e 98 99
e 100 101
e 100 102
e 101 102
e 103 104
e 103 105
e 103 106
e 104 105
e 104 106
e 105 106
e 107 108
e 109 110
